n_machines = 2;
n_resources = 4;
n_jobs = 37;
horizon = 232;
LB = 116;
n_jobs_per_resource = [11, 8, 11, 7];
duration = [2, 7, 9, 5, 8, 6, 8, 9, 6, 7, 1, 6, 6, 1, 8, 3, 1, 6, 6, 6, 6, 9, 3, 6, 9, 2, 9, 9, 8, 8, 3, 8, 8, 7, 9, 9, 8]